(set-info :smt-lib-version 2.6)
(set-logic UF)
(set-info :source |Benchmarks from the paper: "Extending Sledgehammer with SMT Solvers" by Jasmin Blanchette, Sascha Bohme, and Lawrence C. Paulson, CADE 2011.  Translated to SMT2 by Andrew Reynolds and Morgan Deters.|)
(set-info :category "industrial")
(set-info :status unknown)
(declare-sort S1 0)
(declare-sort S2 0)
(declare-sort S3 0)
(declare-sort S4 0)
(declare-sort S5 0)
(declare-sort S6 0)
(declare-sort S7 0)
(declare-sort S8 0)
(declare-sort S9 0)
(declare-sort S10 0)
(declare-sort S11 0)
(declare-fun f1 () S1)
(declare-fun f2 () S1)
(declare-fun f3 (S3 S2) S2)
(declare-fun f4 () S3)
(declare-fun f5 (S3 S4) S1)
(declare-fun f6 (S5 S2) S3)
(declare-fun f7 () S5)
(declare-fun f8 (S6 S7) S2)
(declare-fun f9 () S6)
(declare-fun f10 (S8 S7) S7)
(declare-fun f11 () S8)
(declare-fun f12 () S8)
(declare-fun f13 () S7)
(declare-fun f14 () S4)
(declare-fun f15 (S9 S7) S8)
(declare-fun f16 () S9)
(declare-fun f17 () S8)
(declare-fun f18 (S7) S1)
(declare-fun f19 () S9)
(declare-fun f20 () S5)
(declare-fun f21 () S5)
(declare-fun f22 (S10 S2) S7)
(declare-fun f23 (S11 S7) S10)
(declare-fun f24 () S11)
(assert (not (= f1 f2)))
(assert (forall ((?v0 S2)) (= (f3 f4 ?v0) ?v0)))
(assert (not (= (f5 (f6 f7 (f8 f9 (f10 f11 (f10 f12 f13)))) f14) f1)))
(assert (forall ((?v0 S7)) (= (f10 (f15 f16 ?v0) (f10 f17 (f10 f12 f13))) ?v0)))
(assert (forall ((?v0 S7)) (= (f10 (f15 f16 (f10 f17 (f10 f12 f13))) ?v0) ?v0)))
(assert (= (f10 f11 f13) f13))
(assert (forall ((?v0 S7)) (= (= f13 (f10 f11 ?v0)) (= f13 ?v0))))
(assert (forall ((?v0 S7)) (= (= (f10 f11 ?v0) f13) (= ?v0 f13))))
(assert (forall ((?v0 S7) (?v1 S7)) (= (= (f10 f11 ?v0) (f10 f12 ?v1)) false)))
(assert (forall ((?v0 S7) (?v1 S7)) (= (= (f10 f12 ?v0) (f10 f11 ?v1)) false)))
(assert (forall ((?v0 S7)) (= (= f13 (f10 f12 ?v0)) false)))
(assert (forall ((?v0 S7)) (= (= (f10 f12 ?v0) f13) false)))
(assert (forall ((?v0 S7) (?v1 S7)) (= (f10 f17 (f10 (f15 f16 ?v0) ?v1)) (f10 (f15 f16 (f10 f17 ?v0)) (f10 f17 ?v1)))))
(assert (forall ((?v0 S7) (?v1 S7)) (= (f10 (f15 f16 (f10 f17 ?v0)) (f10 f17 ?v1)) (f10 f17 (f10 (f15 f16 ?v0) ?v1)))))
(assert (forall ((?v0 S7) (?v1 S7) (?v2 S7)) (= (f10 (f15 f16 (f10 f17 ?v0)) (f10 (f15 f16 (f10 f17 ?v1)) ?v2)) (f10 (f15 f16 (f10 f17 (f10 (f15 f16 ?v0) ?v1))) ?v2))))
(assert (forall ((?v0 S7) (?v1 S7)) (= (f10 (f15 f16 ?v0) ?v1) (f10 (f15 f16 ?v1) ?v0))))
(assert (forall ((?v0 S7) (?v1 S7)) (= (f10 (f15 f16 (f10 f17 ?v0)) (f10 f17 ?v1)) (f10 f17 (f10 (f15 f16 ?v0) ?v1)))))
(assert (forall ((?v0 S7) (?v1 S7) (?v2 S7)) (let ((?v_0 (f15 f16 ?v0))) (= (f10 (f15 f16 (f10 ?v_0 ?v1)) ?v2) (f10 ?v_0 (f10 (f15 f16 ?v1) ?v2))))))
(assert (forall ((?v0 S7)) (= (f10 (f15 f16 f13) ?v0) f13)))
(assert (forall ((?v0 S7) (?v1 S7)) (= (f10 (f15 f16 (f10 f11 ?v0)) ?v1) (f10 f11 (f10 (f15 f16 ?v0) ?v1)))))
(assert (forall ((?v0 S7) (?v1 S7)) (= (= (f10 f17 ?v0) (f10 f17 ?v1)) (= ?v0 ?v1))))
(assert (forall ((?v0 S7) (?v1 S2)) (let ((?v_0 (f8 f9 ?v0))) (= (= ?v_0 ?v1) (= ?v1 ?v_0)))))
(assert (forall ((?v0 S7) (?v1 S7)) (let ((?v_0 (f10 f17 ?v0))) (= (= ?v_0 ?v1) (= ?v1 ?v_0)))))
(assert (forall ((?v0 S7) (?v1 S7)) (= (= (f10 f12 ?v0) (f10 f12 ?v1)) (= ?v0 ?v1))))
(assert (= (= f13 f13) true))
(assert (forall ((?v0 S7) (?v1 S7)) (= (= (f10 f11 ?v0) (f10 f11 ?v1)) (= ?v0 ?v1))))
(assert (not (= (f18 (f10 f17 (f10 f12 f13))) f1)))
(assert (forall ((?v0 S7)) (= (f10 (f15 f16 (f10 f17 (f10 f11 (f10 f12 f13)))) ?v0) (f10 (f15 f19 ?v0) ?v0))))
(assert (forall ((?v0 S2)) (= (f3 (f6 f7 (f8 f9 (f10 f11 (f10 f12 f13)))) ?v0) (f3 (f6 f20 ?v0) ?v0))))
(assert (forall ((?v0 S7)) (= (f10 (f15 f16 (f10 f17 (f10 f11 (f10 f12 f13)))) ?v0) (f10 (f15 f19 ?v0) ?v0))))
(assert (forall ((?v0 S7)) (= (f10 (f15 f16 ?v0) (f10 f17 (f10 f11 (f10 f12 f13)))) (f10 (f15 f19 ?v0) ?v0))))
(assert (forall ((?v0 S2)) (= (f3 (f6 f7 ?v0) (f8 f9 (f10 f11 (f10 f12 f13)))) (f3 (f6 f20 ?v0) ?v0))))
(assert (forall ((?v0 S7)) (= (f10 (f15 f16 ?v0) (f10 f17 (f10 f11 (f10 f12 f13)))) (f10 (f15 f19 ?v0) ?v0))))
(assert (forall ((?v0 S4)) (= (f5 f4 ?v0) f1)))
(assert (forall ((?v0 S2) (?v1 S2)) (let ((?v_0 (f6 f21 ?v0))) (let ((?v_1 (f3 ?v_0 ?v1))) (= (f3 ?v_0 (f3 (f6 f7 (f8 f9 (f10 f11 (f10 f12 f13)))) ?v1)) (f3 (f6 f7 ?v_1) ?v_1))))))
(assert (forall ((?v0 S7) (?v1 S2)) (let ((?v_0 (f23 f24 ?v0))) (let ((?v_1 (f22 ?v_0 ?v1))) (= (f22 ?v_0 (f3 (f6 f7 (f8 f9 (f10 f11 (f10 f12 f13)))) ?v1)) (f10 (f15 f16 ?v_1) ?v_1))))))
(assert (forall ((?v0 S7)) (let ((?v_0 (f8 f9 ?v0))) (= (f3 (f6 f21 ?v_0) (f8 f9 (f10 f11 (f10 f12 f13)))) (f3 (f6 f7 ?v_0) ?v_0)))))
(assert (forall ((?v0 S7)) (let ((?v_0 (f10 f17 ?v0))) (= (f22 (f23 f24 ?v_0) (f8 f9 (f10 f11 (f10 f12 f13)))) (f10 (f15 f16 ?v_0) ?v_0)))))
(assert (forall ((?v0 S2)) (= (f3 (f6 f7 (f8 f9 (f10 f11 (f10 f12 f13)))) ?v0) (f3 (f6 f20 ?v0) ?v0))))
(assert (forall ((?v0 S2)) (= (f3 (f6 f7 ?v0) (f8 f9 (f10 f11 (f10 f12 f13)))) (f3 (f6 f20 ?v0) ?v0))))
(check-sat)
(exit)
